S = 32;
P = 20;
Start = [0, 0, 0, 12, 5, 15, 0, 20, 3, 0, 17, 8, 9, 14, 0, 13, 0, 0, 19, 2, 0, 18, 10, 0, 11, 0, 6, 7, 4, 1, 0, 16];
Goal = [2, 9, 0, 8, 0, 0, 20, 0, 10, 3, 12, 0, 6, 5, 0, 18, 17, 11, 13, 14, 0, 15, 0, 0, 0, 4, 19, 0, 7, 16, 0, 1];
Can_swap = [true, false, true, true, true, false, false, false, false, true, true, true, true, true, false, false, false, false, false, true];
